&DOS
    prefix  = 'Si_exc1'
    fildos = 'WSe2.dos.dat'
    degauss =  1.00000e-02
    deltae  =  1.00000e-02
    emax    =  5.00000e+01
    emin    = -5.00000e+01
    ngauss  = 0
    outdir = './out/'
/

&PROJWFC
    degauss =  1.00000e-02
    deltae  =  1.00000e-02
    emax    =  5.00000e+01
    emin    = -5.00000e+01
    ngauss  = 0
/

&SYSTEM
    a                         =  3.32707e+00
    c                         =  2.50690e+01
    degauss                   =  1.00000e-02
    ecutrho                   =  2.25000e+02
    ecutwfc                   =  2.50000e+01
    ibrav                     = 4
    nat                       = 6
    nspin                     = 2
    ntyp                      = 2
    occupations               = "smearing"
    smearing                  = "gaussian"
    starting_magnetization(1) =  2.00000e-01
    starting_magnetization(2) =  0.00000e+00
/

&ELECTRONS
    conv_thr         =  1.00000e-06
    electron_maxstep = 200
    mixing_beta      =  4.00000e-01
    startingpot      = "atomic"
    startingwfc      = "atomic+random"
/
&BANDS
    lsym           = .FALSE.
    spin_component = 1
/

K_POINTS {tpiba_b}
12
gG     20
M      20
K      20
gG     20
A      20
L      20
H      20
A      0
L      20
M      0
K      20
H      0

ATOMIC_SPECIES
W     183.84000  W.pbe-nsp-van.UPF
Se     78.96000  Se.pbe-n-rrkjus_psl.1.0.0.UPF

ATOMIC_POSITIONS {angstrom}
W      -0.000002   1.920886   3.767238
W       1.663537   0.960441  11.301713
Se      1.663537   0.960441   5.448466
Se     -0.000002   1.920886  12.982941
Se      1.663537   0.960441   2.086010
Se     -0.000002   1.920886   9.620485
