&CONTROL
    pseudo_dir = "C:\Users\ROG\.burai\.pseudopot"
/

&SYSTEM
    a     =  3.19224e+00
    c     =  1.33783e+01
    ibrav = 4
    nat   = 6
    ntyp  = 3
/

ATOMIC_SPECIES
Sn    118.71000  Sn.pbe-dn-rrkjus_psl.1.0.0.UPF
Se     78.96000  Se.pbe-n-rrkjus_psl.1.0.0.UPF
W     183.84000  W.pbe-nsp-van.UPF

ATOMIC_POSITIONS {angstrom}
Sn     -0.000002   1.843040  10.033721
Se      1.596121   0.921519   8.469557
Se     -0.000002   1.843040   4.908737
Se      1.596121   0.921519  11.597884
Se     -0.000002   1.843040   1.780410
W       1.596121   0.921519   3.344574


