&DOS
    prefix  = 'Si_exc1'
    fildos = 'WSe2.dos.dat'
    degauss =  1.00000e-02
    deltae  =  1.00000e-02
    emax    =  5.00000e+01
    emin    = -5.00000e+01
    ngauss  = 0
    outdir = './out/'
/

&PROJWFC
    degauss =  1.00000e-02
    deltae  =  1.00000e-02
    emax    =  5.00000e+01
    emin    = -5.00000e+01
    ngauss  = 0
/
&SYSTEM
    a                         =  6.38448e+00
    c                         =  1.33783e+01
    degauss                   =  1.00000e-02
    ecutrho                   =  4.23668e+02
    ecutwfc                   =  4.70743e+01
    ibrav                     = 4
    nat                       = 24
    nbnd                      = 152
    nspin                     = 2
    ntyp                      = 3
    occupations               = "smearing"
    smearing                  = "gaussian"
    starting_magnetization(1) =  0.00000e+00
    starting_magnetization(2) =  0.00000e+00
    starting_magnetization(3) =  2.00000e-01
/

&ELECTRONS
    conv_thr         =  1.00000e-06
    electron_maxstep = 200
    mixing_beta      =  4.00000e-01
    startingpot      = "atomic"
    startingwfc      = "atomic+random"
/

&BANDS
    lsym           = .FALSE.
    spin_component = 1
/

K_POINTS {tpiba_b}
12
gG     20
M      20
K      20
gG     20
A      20
L      20
H      20
A      0
L      20
M      0
K      20
H      0

ATOMIC_SPECIES
Sn    118.71000  Sn.pbe-dn-rrkjus_psl.1.0.0.UPF
Se     78.96000  Se.pbe-n-rrkjus_psl.1.0.0.UPF
W     183.84000  W.pbe-nsp-van.UPF

ATOMIC_POSITIONS {angstrom}
Sn     -0.000003   1.843038  10.033721
Sn     -1.596122   4.607597  10.033721
Sn      3.192235   1.843038  10.033721
Sn      1.596116   4.607597  10.033721
Se      1.596119   0.921516   8.469557
Se      0.000000   3.686075   8.469557
Se      4.788357   0.921516   8.469557
Se      3.192238   3.686075   8.469557
Se     -0.000003   1.843038   4.908737
Se     -1.596122   4.607597   4.908737
Se      3.192235   1.843038   4.908737
Se      1.596116   4.607597   4.908737
Se      1.596119   0.921516  11.597884
Se      0.000000   3.686075  11.597884
Se      4.788357   0.921516  11.597884
Se      3.192238   3.686075  11.597884
Se     -0.000003   1.843038   1.780410
Se     -1.596122   4.607597   1.780410
Se      3.192235   1.843038   1.780410
Se      1.596116   4.607597   1.780410
W       1.596119   0.921516   3.344574
W       0.000000   3.686075   3.344574
W       4.788357   0.921516   3.344574
W       3.192238   3.686075   3.344574